Traveling Salesman Problem/TSP_generados/Aleatorio1621103738_17.tsp
NAME: Aleatorio1621103738_17.tsp
COMMENT: Randomly generated scenario
TYPE: TSP
DIMENSION: 17
EDGE_WEIGHT_TYPE: ATT
NODE_COORD_SECTION
1 46.9 11.2
2 31.53 23.47
3 46.79 34.61
4 3.09 18.33
5 25.97 46.13
6 2.81 0.89
7 22.38 21.57
8 19.36 26.12
9 27.56 2.45
10 33.51 10.58
11 23.26 29.47
12 15.19 40.87
13 24.82 45.79
14 40.39 21.54
15 25.35 12.48
16 12.66 19.76
17 38.1 11.02
