Traveling Salesman Problem/TSP_generados/Aleatorio1621103738_17.opt.tour
NAME: Aleatorio1621103738_17.opt.tour
COMMENT: Optimal solution for Aleatorio1621103738_17 (194.4238674826451)
TYPE: TOUR
DIMENSION: 17
TOUR_SECTION
1 14 2 3 5 13 12 11 8 7 16 4 6 9 15 10 17
-1
EOF
